Tried aggregator 2 times.
MIP Presolve eliminated 8 rows and 5 columns.
MIP Presolve modified 36 coefficients.
Aggregator did 36 substitutions.
Reduced MIP has 127 rows, 117 columns, and 296 nonzeros.
Reduced MIP has 72 binaries, 9 generals, 0 SOSs, and 48 indicators.
Presolve time = 0.00 sec. (0.26 ticks)
Found incumbent of value 10.000000 after 0.00 sec. (0.46 ticks)
Probing fixed 9 vars, tightened 18 bounds.
Probing time = 0.00 sec. (0.20 ticks)
Tried aggregator 3 times.
MIP Presolve eliminated 15 rows and 15 columns.
Aggregator did 33 substitutions.
Reduced MIP has 79 rows, 69 columns, and 194 nonzeros.
Reduced MIP has 48 binaries, 21 generals, 0 SOSs, and 42 indicators.
Presolve time = 0.00 sec. (0.38 ticks)
Probing time = 0.00 sec. (0.09 ticks)
Tried aggregator 1 time.
Reduced MIP has 79 rows, 69 columns, and 194 nonzeros.
Reduced MIP has 48 binaries, 21 generals, 0 SOSs, and 42 indicators.
Presolve time = 0.00 sec. (0.10 ticks)
Probing time = 0.00 sec. (0.09 ticks)
Clique table members: 36.
MIP emphasis: balance optimality and feasibility.
MIP search method: dynamic search.
Parallel mode: deterministic, using up to 4 threads.
Root relaxation solution time = 0.00 sec. (0.14 ticks)

        Nodes                                         Cuts/
   Node  Left     Objective  IInf  Best Integer    Best Bound    ItCnt     Gap

*     0+    0                           10.0000        3.0000       18   70.00%
      0     0        3.0000    25       10.0000        3.0000       18   70.00%
      0     0        3.0000    27       10.0000      Cuts: 28       47   70.00%
*     0+    0                            3.0000        3.0000       47    0.00%
      0     0        cutoff              3.0000        3.0000       47    0.00%
Elapsed time = 0.02 sec. (4.06 ticks, tree = 0.00 MB, solutions = 2)

Implied bound cuts applied:  6
Zero-half cuts applied:  2
Gomory fractional cuts applied:  12

Root node processing (before b&c):
  Real time             =    0.02 sec. (4.07 ticks)
Parallel b&c, 4 threads:
  Real time             =    0.00 sec. (0.00 ticks)
  Sync time (average)   =    0.00 sec.
  Wait time (average)   =    0.00 sec.
                          ------------
Total (root+branch&cut) =    0.02 sec. (4.07 ticks)
